% seed = 0

mint = 28;
% maxt = 216;

nActs = 92;
dur = [0,2,1,2,4,1,3,4,1,5,1,1,2,2,2,1,3,3,2,2,2,2,3,3,3,5,2,3,3,2,4,1,2,2,3,2,2,3,1,3,4,1,2,3,3,2,2,2,2,3,3,2,2,3,2,3,2,2,3,2,3,5,3,1,2,1,3,3,3,4,2,3,4,1,2,3,2,1,3,3,3,1,3,3,2,1,1,3,2,3,1,0];

nSkills = 3;
sreq = [| 0,0,0,
	| 1,1,1,
	| 1,0,0,
	| 1,0,2,
	| 0,0,2,
	| 1,1,1,
	| 1,1,3,
	| 1,0,0,
	| 0,0,2,
	| 1,0,2,
	| 1,1,0,
	| 1,1,3,
	| 0,2,1,
	| 1,1,0,
	| 1,0,2,
	| 0,1,1,
	| 0,1,1,
	| 1,1,3,
	| 2,0,1,
	| 0,1,1,
	| 1,0,1,
	| 1,0,2,
	| 1,0,2,
	| 2,0,1,
	| 1,1,3,
	| 1,1,2,
	| 0,1,1,
	| 1,0,1,
	| 1,1,0,
	| 1,1,2,
	| 1,2,1,
	| 1,1,2,
	| 1,1,1,
	| 1,2,0,
	| 0,0,2,
	| 1,1,3,
	| 0,1,3,
	| 1,1,3,
	| 1,0,0,
	| 1,2,2,
	| 0,0,3,
	| 1,0,2,
	| 0,2,2,
	| 0,0,1,
	| 1,1,2,
	| 1,1,3,
	| 0,0,3,
	| 1,2,0,
	| 1,0,1,
	| 1,0,1,
	| 0,1,2,
	| 1,0,1,
	| 0,0,1,
	| 1,0,0,
	| 0,0,1,
	| 0,1,4,
	| 1,2,2,
	| 0,1,3,
	| 0,1,0,
	| 1,0,0,
	| 1,0,2,
	| 1,1,1,
	| 1,0,1,
	| 2,1,1,
	| 0,0,1,
	| 1,1,2,
	| 0,0,2,
	| 1,0,1,
	| 0,1,2,
	| 0,1,1,
	| 1,0,1,
	| 0,1,1,
	| 1,0,0,
	| 0,1,1,
	| 1,0,1,
	| 1,0,2,
	| 1,1,1,
	| 2,0,2,
	| 0,1,1,
	| 0,1,1,
	| 1,1,1,
	| 0,0,1,
	| 2,1,2,
	| 1,1,2,
	| 0,0,3,
	| 0,1,2,
	| 1,0,1,
	| 1,0,2,
	| 1,0,1,
	| 1,1,3,
	| 0,0,3,
	| 0,0,0, |];

% SumOfsreq = 255;

nResources = 6;
mastery = [| false,false,true,
	| false,true,false,
	| false,false,true,
	| false,false,true,
	| true,false,false,
	| true,true,true, |];

nPrecs = 138;
pred = [1,1,1,2,2,3,3,3,4,4,4,5,6,6,6,7,8,8,8,9,10,10,11,11,11,12,12,13,13,14,14,14,15,15,15,16,17,17,17,18,19,20,21,21,22,23,24,25,26,26,26,27,28,28,29,29,29,30,31,31,32,33,33,33,34,35,36,37,37,38,39,39,39,40,41,41,42,43,44,45,45,46,46,46,47,47,48,48,49,50,51,51,52,53,53,54,55,56,57,58,59,60,61,62,63,64,65,66,67,68,69,69,69,70,71,72,73,73,74,74,75,75,76,77,78,79,80,81,82,83,84,85,86,87,88,89,90,91];
succ = [2,3,4,17,16,5,14,15,12,6,8,9,20,29,7,10,11,21,22,74,41,13,25,19,37,36,24,85,32,50,59,39,18,47,23,55,26,30,80,82,27,38,75,40,60,31,28,84,65,44,48,63,35,38,33,34,54,46,42,43,49,51,84,61,53,89,37,73,86,52,68,87,79,45,57,58,44,71,78,57,83,67,69,64,49,62,62,64,66,90,76,72,56,76,78,67,64,71,88,77,81,62,77,69,68,85,70,84,77,90,74,76,72,78,83,81,74,82,81,90,86,80,87,87,79,82,91,89,83,85,88,89,91,88,91,92,92,92];

nUnrels = 3220;
unpred = [2,2,2,2,2,2,2,2,2,2,2,2,2,2,2,2,2,2,2,2,2,2,2,2,2,2,2,2,2,2,2,2,2,2,2,2,2,2,2,2,2,2,2,2,2,2,2,2,2,2,2,2,2,2,2,2,2,2,2,3,3,3,3,3,3,3,3,3,3,3,3,3,3,3,3,3,3,3,3,3,3,3,3,3,3,3,3,3,3,3,3,3,3,3,3,3,3,3,3,3,3,3,3,3,3,3,3,3,3,3,3,3,4,4,4,4,4,4,4,4,4,4,4,4,4,4,4,4,4,4,4,4,4,4,4,4,5,5,5,5,5,5,5,5,5,5,5,5,5,5,5,5,5,5,5,5,5,5,5,5,5,5,5,5,5,5,5,5,5,5,5,5,5,5,5,5,5,5,5,5,5,5,5,5,5,5,5,5,5,5,5,5,5,5,5,5,5,5,5,5,5,5,5,5,5,5,5,5,5,5,5,5,5,5,5,5,5,6,6,6,6,6,6,6,6,6,6,6,6,6,6,6,6,6,6,6,6,6,6,6,6,6,6,6,6,6,6,6,6,6,6,6,6,6,6,6,6,6,6,6,6,6,6,6,6,6,7,7,7,7,7,7,7,7,7,7,7,7,7,7,7,7,7,7,7,7,7,7,7,7,7,7,7,7,7,7,7,7,7,7,7,7,7,7,7,7,7,7,7,7,7,7,7,7,7,7,7,7,7,7,7,7,7,7,7,7,7,7,7,7,7,7,7,7,7,8,8,8,8,8,8,8,8,8,8,8,8,8,8,8,8,8,8,8,8,8,8,8,8,8,8,8,8,8,8,8,8,8,8,8,8,8,8,8,8,8,8,8,8,8,8,8,8,8,8,8,9,9,9,9,9,9,9,9,9,9,9,9,9,9,9,9,9,9,9,9,9,9,9,9,9,9,9,9,9,9,9,9,9,9,9,9,9,9,9,9,9,9,9,9,9,9,9,9,9,9,9,9,9,9,9,9,9,9,9,9,9,9,9,9,9,9,9,9,9,9,9,9,9,9,9,9,9,9,10,10,10,10,10,10,10,10,10,10,10,10,10,10,10,10,10,10,10,10,10,10,10,10,10,10,10,10,10,10,10,10,10,10,10,10,10,10,10,10,10,10,10,10,10,10,10,10,10,10,10,10,10,10,10,10,10,10,10,10,10,10,10,10,10,10,10,11,11,11,11,11,11,11,11,11,11,11,11,11,11,11,11,11,11,11,11,11,11,11,11,11,11,11,11,11,11,11,11,11,11,11,11,11,11,11,11,11,11,11,11,11,11,11,11,11,11,11,11,11,11,11,11,11,11,11,11,11,11,12,12,12,12,12,12,12,12,12,12,12,12,12,12,12,12,12,12,12,12,12,12,12,12,12,12,12,12,12,12,12,12,12,12,12,12,12,12,12,12,12,12,12,12,12,12,12,12,12,12,12,12,12,12,12,12,12,12,12,12,13,13,13,13,13,13,13,13,13,13,13,13,13,13,13,13,13,13,13,13,13,13,13,13,13,13,13,13,13,13,13,13,13,13,13,13,13,13,13,13,13,13,13,13,13,13,13,13,13,13,13,13,13,13,13,13,13,13,13,13,13,13,13,13,13,13,13,13,13,13,14,14,14,14,14,14,14,14,14,14,14,14,14,14,14,14,14,14,14,14,14,14,14,14,14,14,14,14,14,14,14,14,14,14,14,14,14,14,14,14,14,14,14,14,14,14,14,14,14,14,14,14,14,14,14,14,14,14,14,14,14,14,14,15,15,15,15,15,15,15,15,15,15,15,15,15,15,15,15,15,15,15,15,15,15,15,15,15,15,15,15,15,15,15,15,15,15,15,15,15,15,15,15,15,15,15,15,15,15,15,15,15,16,16,16,16,16,16,16,16,16,16,16,16,16,16,16,16,16,16,16,16,16,16,16,16,16,16,16,16,16,16,16,16,16,16,16,16,16,16,16,16,16,16,16,16,16,16,16,16,16,16,16,16,16,16,16,16,16,16,16,16,16,16,16,16,16,16,16,16,16,16,16,17,17,17,17,17,17,17,17,17,17,17,17,17,17,17,17,17,17,17,17,17,17,17,17,17,17,17,17,17,17,17,17,17,17,17,17,17,17,17,17,17,17,17,17,17,17,17,18,18,18,18,18,18,18,18,18,18,18,18,18,18,18,18,18,18,18,18,18,18,18,18,18,18,18,18,18,18,18,18,18,18,18,18,18,18,18,18,18,18,18,18,18,18,18,18,18,18,18,18,18,18,18,18,18,18,18,18,18,18,18,18,18,18,18,18,18,19,19,19,19,19,19,19,19,19,19,19,19,19,19,19,19,19,19,19,19,19,19,19,19,19,19,19,19,19,19,19,19,19,19,19,19,19,19,19,19,19,19,19,19,19,19,19,19,19,19,19,19,19,19,19,19,19,19,19,19,19,19,19,19,19,19,19,19,20,20,20,20,20,20,20,20,20,20,20,20,20,20,20,20,20,20,20,20,20,20,20,20,20,20,20,20,20,20,20,20,20,20,20,20,20,20,20,20,20,20,20,20,20,20,20,20,20,20,20,20,20,20,20,20,20,20,20,20,20,20,20,20,21,21,21,21,21,21,21,21,21,21,21,21,21,21,21,21,21,21,21,21,21,21,21,21,21,21,21,21,21,21,21,21,21,21,21,21,21,21,21,21,21,21,21,21,21,21,21,21,21,21,21,21,21,21,21,21,21,21,21,22,22,22,22,22,22,22,22,22,22,22,22,22,22,22,22,22,22,22,22,22,22,22,22,22,22,22,22,22,22,22,22,22,22,22,22,22,22,22,22,22,22,22,22,22,22,22,22,22,22,22,22,22,22,22,22,22,23,23,23,23,23,23,23,23,23,23,23,23,23,23,23,23,23,23,23,23,23,23,23,23,23,23,23,23,23,23,23,23,23,23,23,23,23,23,23,23,23,23,23,23,23,23,23,23,23,23,23,23,23,23,23,23,23,24,24,24,24,24,24,24,24,24,24,24,24,24,24,24,24,24,24,24,24,24,24,24,24,24,24,24,24,24,24,24,24,24,24,24,24,24,24,24,24,24,24,24,24,24,24,24,24,24,24,24,24,24,24,24,24,24,24,25,25,25,25,25,25,25,25,25,25,25,25,25,25,25,25,25,25,25,25,25,25,25,25,25,25,25,25,25,25,25,25,25,25,25,25,25,25,25,25,25,25,25,25,25,25,25,25,25,25,25,25,25,25,25,25,25,25,25,25,25,25,25,26,26,26,26,26,26,26,26,26,26,26,26,26,26,26,26,26,26,26,26,26,26,26,26,26,26,26,26,26,26,26,26,26,26,26,26,26,26,26,26,26,26,26,26,27,27,27,27,27,27,27,27,27,27,27,27,27,27,27,27,27,27,27,27,27,27,27,27,27,27,27,27,27,27,27,27,27,27,27,27,27,27,27,27,27,27,27,27,27,27,27,27,27,27,27,27,27,27,27,27,27,27,27,27,27,28,28,28,28,28,28,28,28,28,28,28,28,28,28,28,28,28,28,28,28,28,28,28,28,28,28,28,28,28,28,28,28,28,28,28,28,28,28,28,28,28,28,28,28,28,28,28,28,28,28,28,28,28,28,28,29,29,29,29,29,29,29,29,29,29,29,29,29,29,29,29,29,29,29,29,29,29,29,29,29,29,29,29,29,29,29,29,29,29,29,29,29,29,29,29,29,30,30,30,30,30,30,30,30,30,30,30,30,30,30,30,30,30,30,30,30,30,30,30,30,30,30,30,30,30,30,30,30,30,30,30,30,30,30,30,30,30,30,30,30,30,30,31,31,31,31,31,31,31,31,31,31,31,31,31,31,31,31,31,31,31,31,31,31,31,31,31,31,31,31,31,31,31,31,31,31,31,31,31,31,31,31,31,31,31,31,31,31,31,31,31,31,32,32,32,32,32,32,32,32,32,32,32,32,32,32,32,32,32,32,32,32,32,32,32,32,32,32,32,32,32,32,32,32,32,32,32,32,32,32,32,32,32,32,32,32,32,32,32,32,32,32,32,32,32,32,33,33,33,33,33,33,33,33,33,33,33,33,33,33,33,33,33,33,33,33,33,33,33,33,33,33,33,33,33,33,33,33,33,33,33,33,33,33,33,33,33,33,33,33,33,33,33,34,34,34,34,34,34,34,34,34,34,34,34,34,34,34,34,34,34,34,34,34,34,34,34,34,34,34,34,34,34,34,34,34,34,34,34,34,34,34,34,34,34,34,34,34,34,35,35,35,35,35,35,35,35,35,35,35,35,35,35,35,35,35,35,35,35,35,35,35,35,35,35,35,35,35,35,35,35,35,35,35,35,35,35,35,35,35,35,35,35,35,35,35,35,35,35,35,35,35,35,35,36,36,36,36,36,36,36,36,36,36,36,36,36,36,36,36,36,36,36,36,36,36,36,36,36,36,36,36,36,36,36,36,36,36,36,36,36,36,36,36,36,36,36,36,37,37,37,37,37,37,37,37,37,37,37,37,37,37,37,37,37,37,37,37,37,37,37,37,37,37,37,37,37,37,37,37,37,37,37,37,37,37,37,37,37,37,37,37,38,38,38,38,38,38,38,38,38,38,38,38,38,38,38,38,38,38,38,38,38,38,38,38,38,38,38,38,38,38,38,38,38,38,38,38,38,38,38,38,38,38,38,38,38,38,38,39,39,39,39,39,39,39,39,39,39,39,39,39,39,39,39,39,39,39,39,39,39,39,39,39,39,39,39,39,39,39,39,39,39,39,39,39,39,39,39,39,39,40,40,40,40,40,40,40,40,40,40,40,40,40,40,40,40,40,40,40,40,40,40,40,40,40,40,40,40,40,40,40,40,40,40,40,40,40,40,40,40,40,40,40,40,41,41,41,41,41,41,41,41,41,41,41,41,41,41,41,41,41,41,41,41,41,41,41,41,41,41,41,41,41,41,41,41,41,41,41,41,41,41,41,41,41,41,41,41,42,42,42,42,42,42,42,42,42,42,42,42,42,42,42,42,42,42,42,42,42,42,42,42,42,42,42,42,42,42,42,42,42,42,42,42,42,42,42,42,42,42,43,43,43,43,43,43,43,43,43,43,43,43,43,43,43,43,43,43,43,43,43,43,43,43,43,43,43,43,43,43,43,43,43,43,43,43,43,43,43,43,43,43,43,43,44,44,44,44,44,44,44,44,44,44,44,44,44,44,44,44,44,44,44,44,44,44,44,44,44,44,44,44,44,44,44,44,44,44,44,44,44,44,44,44,44,45,45,45,45,45,45,45,45,45,45,45,45,45,45,45,45,45,45,45,45,45,45,45,45,45,45,45,45,45,45,45,45,45,45,45,45,45,45,45,45,46,46,46,46,46,46,46,46,46,46,46,46,46,46,46,46,46,46,46,46,46,46,46,46,46,46,46,46,46,46,46,47,47,47,47,47,47,47,47,47,47,47,47,47,47,47,47,47,47,47,47,47,47,47,47,47,47,47,47,47,47,48,48,48,48,48,48,48,48,48,48,48,48,48,48,48,48,48,48,48,48,48,48,48,48,48,48,48,48,48,48,49,49,49,49,49,49,49,49,49,49,49,49,49,49,49,49,49,49,49,49,49,49,49,49,49,49,49,49,49,49,49,49,49,49,49,49,49,49,50,50,50,50,50,50,50,50,50,50,50,50,50,50,50,50,50,50,50,50,50,50,50,50,50,50,50,50,50,50,50,50,50,50,50,50,50,50,50,50,51,51,51,51,51,51,51,51,51,51,51,51,51,51,51,51,51,51,51,51,51,51,51,51,51,51,51,51,51,51,51,51,51,52,52,52,52,52,52,52,52,52,52,52,52,52,52,52,52,52,52,52,52,52,52,52,52,52,52,52,52,52,52,52,52,52,52,53,53,53,53,53,53,53,53,53,53,53,53,53,53,53,53,53,53,53,53,53,53,53,53,53,53,53,53,54,54,54,54,54,54,54,54,54,54,54,54,54,54,54,54,54,54,54,54,54,54,54,54,54,54,54,54,54,54,54,54,55,55,55,55,55,55,55,55,55,55,55,55,55,55,55,55,55,55,55,55,55,55,55,55,55,55,55,55,55,55,55,55,55,56,56,56,56,56,56,56,56,56,56,56,56,56,56,56,56,56,56,56,56,56,56,56,56,56,56,56,56,56,56,56,57,57,57,57,57,57,57,57,57,57,57,57,57,57,57,57,57,57,57,57,57,57,57,57,57,57,57,57,57,57,57,57,58,58,58,58,58,58,58,58,58,58,58,58,58,58,58,58,58,58,58,58,58,58,58,58,58,58,58,58,58,59,59,59,59,59,59,59,59,59,59,59,59,59,59,59,59,59,59,59,59,59,59,59,59,59,59,59,59,59,59,60,60,60,60,60,60,60,60,60,60,60,60,60,60,60,60,60,60,60,60,61,61,61,61,61,61,61,61,61,61,61,61,61,61,61,61,61,61,61,61,61,61,61,61,61,61,62,62,62,62,62,62,62,62,62,62,62,62,62,62,62,62,62,62,62,63,63,63,63,63,63,63,63,63,63,63,63,63,63,63,63,63,63,63,63,63,63,63,63,63,63,64,64,64,64,64,64,64,64,64,64,64,64,64,64,64,64,64,64,64,64,64,64,64,64,64,65,65,65,65,65,65,65,65,65,65,65,65,65,65,65,65,65,65,65,66,66,66,66,66,66,66,66,66,66,66,66,66,66,66,66,66,66,66,66,66,66,67,67,67,67,67,67,67,67,67,67,67,67,67,67,67,67,67,67,67,67,68,68,68,68,68,68,68,68,68,68,68,68,68,68,68,68,68,68,68,68,68,68,69,69,69,69,69,69,69,69,69,69,69,69,69,70,70,70,70,70,70,70,70,70,70,70,70,70,70,70,71,71,71,71,71,71,71,71,71,71,71,71,71,71,71,71,71,72,72,72,72,72,72,72,72,72,72,72,72,72,72,72,72,72,73,73,73,73,73,73,73,73,73,73,73,74,74,74,74,74,74,74,74,74,74,74,74,74,74,75,75,75,75,75,75,75,75,75,75,75,75,75,76,76,76,76,76,76,76,76,76,76,76,76,77,77,77,77,77,77,77,77,77,77,77,78,78,78,78,78,78,78,78,79,79,79,79,79,79,79,79,80,80,80,80,80,80,80,80,80,80,81,81,81,81,81,81,81,81,81,82,82,82,82,82,82,83,83,83,83,83,83,84,84,84,84,84,85,85,85,85,85,86,86,86,86,87,87,88,88,89,89,90];
unsucc = [3,4,5,6,7,8,9,10,11,12,13,14,15,18,19,20,21,22,23,24,25,27,28,29,31,32,33,34,35,36,37,38,39,40,41,42,43,45,47,49,50,51,52,53,54,56,57,58,59,60,61,63,66,68,71,73,75,84,86,4,6,7,8,10,11,12,13,16,17,19,20,21,22,24,25,26,27,28,29,30,32,33,34,35,36,37,38,40,41,45,46,48,51,52,53,54,55,56,57,58,60,61,63,64,65,67,70,73,75,77,80,86,5,9,14,15,16,17,18,23,26,30,31,39,42,43,44,46,47,48,50,55,59,64,65,70,6,7,8,10,11,12,13,14,15,16,17,18,19,20,21,22,23,24,25,26,27,28,29,30,31,32,33,34,35,36,37,38,39,40,41,42,43,44,45,46,47,48,49,50,51,52,53,54,55,56,57,58,59,60,61,62,63,64,65,66,67,68,69,70,71,72,73,75,76,77,78,79,80,82,83,84,85,86,87,88,91,8,9,11,12,14,15,16,17,18,19,21,22,23,24,25,26,27,28,30,31,35,36,37,39,40,42,43,44,45,46,47,48,50,55,59,60,62,63,64,65,68,69,70,73,74,75,80,86,90,8,9,11,12,14,15,16,17,18,19,20,21,22,23,24,25,26,27,28,29,30,31,33,34,35,36,37,38,39,40,42,43,44,45,46,47,48,50,51,52,53,54,55,56,59,60,61,62,63,64,65,67,68,69,70,71,72,73,74,75,76,78,79,80,81,82,83,86,90,9,10,12,13,14,15,16,17,18,20,23,24,26,28,29,30,31,32,33,34,35,36,38,39,41,42,43,44,46,47,48,49,50,51,52,53,54,55,56,58,59,61,64,65,66,67,70,71,77,78,79,10,11,12,13,14,15,16,17,18,19,20,21,22,23,24,25,26,27,28,29,30,31,32,33,34,35,36,37,38,39,40,41,42,43,44,45,46,47,48,49,50,51,52,53,54,55,56,57,58,59,60,61,62,63,64,65,66,67,68,69,70,71,72,73,75,76,77,78,79,80,82,83,84,85,86,87,88,91,11,12,14,15,16,17,18,19,20,21,22,23,24,25,26,27,28,29,30,31,33,34,35,36,37,38,39,40,42,43,44,45,46,47,48,50,51,52,53,54,55,56,59,60,61,62,63,64,65,67,68,69,70,71,72,73,74,75,76,78,79,80,81,82,83,86,90,12,13,14,15,16,17,18,20,21,22,23,24,26,28,29,30,31,32,33,34,35,36,38,39,40,41,42,43,44,45,46,47,48,49,50,51,52,53,54,55,56,57,58,59,60,61,62,64,65,66,67,69,70,71,72,75,76,77,78,79,80,87,13,14,15,16,17,18,19,20,21,22,23,25,26,27,29,30,31,32,33,34,39,40,41,42,43,44,45,46,47,48,49,50,51,53,54,55,57,58,59,60,61,62,63,64,65,66,67,68,69,70,72,75,76,77,78,79,80,84,87,88,14,15,16,17,18,19,20,21,22,23,24,25,26,27,28,29,30,31,33,34,35,36,37,38,39,40,41,42,43,44,45,46,47,48,50,51,52,53,54,55,56,57,58,59,60,61,62,63,64,65,67,68,69,70,71,72,73,74,75,76,77,78,79,80,81,82,83,86,87,90,15,16,17,18,19,20,21,22,23,24,25,26,27,28,29,30,31,32,33,34,35,36,37,38,40,41,42,43,44,45,46,47,48,49,51,52,53,54,55,56,57,58,60,61,62,63,64,65,66,67,69,70,71,72,73,74,75,76,77,78,80,84,86,16,17,19,20,21,22,24,25,26,27,28,29,30,32,33,34,35,36,37,38,39,40,41,45,46,48,50,51,52,53,54,55,56,57,58,59,60,61,63,64,65,67,68,70,73,75,77,80,86,17,18,19,20,21,22,23,24,25,26,27,28,29,30,31,32,33,34,35,36,37,38,39,40,41,42,43,44,45,46,47,48,49,50,51,52,53,54,56,57,58,59,60,61,62,63,65,66,67,68,69,70,71,72,73,74,75,76,77,78,79,80,81,82,83,84,86,87,88,90,91,18,19,20,21,22,23,24,25,27,28,29,31,32,33,34,35,36,37,38,39,40,41,42,43,45,47,49,50,51,52,53,54,55,56,57,58,59,60,61,63,66,68,71,73,75,84,86,19,20,21,22,23,24,25,26,27,28,29,30,31,32,33,34,35,36,37,38,39,40,41,42,43,44,45,46,47,48,49,50,51,52,53,54,55,56,57,58,59,60,61,62,63,64,65,66,67,68,69,70,71,72,73,74,75,76,77,78,79,80,81,84,86,87,88,90,91,20,21,22,23,24,25,26,28,29,30,31,32,33,34,35,36,37,38,39,40,41,42,43,44,45,46,47,48,49,50,51,52,53,54,55,56,57,58,59,60,61,62,64,65,66,67,69,70,71,72,73,74,75,76,77,78,79,80,81,82,83,84,85,86,87,88,89,91,21,22,23,24,25,26,27,28,29,30,31,32,33,34,35,36,37,39,40,41,42,43,44,45,46,47,48,49,50,51,53,54,55,57,58,59,60,61,62,63,64,65,66,67,68,69,70,72,73,74,75,76,77,78,79,80,81,82,84,86,87,88,90,91,22,23,24,25,26,27,28,29,30,31,32,33,34,35,36,37,38,39,41,42,43,44,46,47,48,49,50,51,52,53,54,55,56,58,59,60,61,62,63,64,65,66,67,68,69,70,71,72,73,74,76,77,78,79,81,82,84,87,90,23,24,25,26,27,28,29,30,31,32,33,34,35,36,37,38,39,40,41,42,43,44,45,46,47,48,49,50,51,52,53,54,55,56,57,58,59,61,63,64,65,66,67,68,70,71,73,75,77,78,79,80,82,83,84,85,86,24,25,26,27,28,29,30,32,33,34,35,36,37,38,39,40,41,45,46,47,48,49,50,51,52,53,54,55,56,57,58,59,60,61,62,63,64,65,66,67,68,69,70,72,73,74,75,76,77,80,81,84,86,87,88,90,91,25,26,27,29,30,31,32,33,34,36,37,39,40,41,42,43,44,45,46,47,48,49,50,51,53,54,55,57,58,59,60,61,62,63,64,65,66,67,68,69,70,72,73,74,75,76,77,78,79,80,81,82,84,86,87,88,90,91,26,27,28,29,30,31,32,33,34,35,36,37,38,39,40,41,42,43,44,45,46,47,48,49,50,51,52,53,54,55,56,57,58,59,60,61,62,63,64,65,66,67,68,69,70,71,72,73,74,75,76,77,78,79,80,81,82,83,85,86,87,89,90,27,28,29,30,31,32,33,34,35,36,37,38,39,40,41,42,43,45,46,47,49,50,51,52,53,54,55,56,57,58,59,60,61,63,66,67,68,71,73,75,77,80,84,86,28,29,30,31,32,33,34,35,36,37,38,39,40,41,42,43,44,45,46,47,48,49,50,51,52,53,54,55,56,57,58,59,60,61,62,64,65,66,67,69,70,71,72,73,74,75,76,77,78,79,80,81,82,83,84,85,86,87,88,89,91,29,30,31,32,33,34,36,37,39,40,41,42,43,44,45,46,47,48,49,50,51,53,54,55,57,58,59,60,61,62,63,64,65,66,67,68,69,70,72,73,74,75,76,77,78,79,80,81,82,84,86,87,88,90,91,30,31,32,35,36,37,38,39,40,41,42,43,44,45,46,47,48,49,50,52,55,56,57,58,59,60,62,63,64,65,66,68,69,70,71,73,74,75,80,86,90,31,32,33,34,35,36,37,38,39,40,41,42,43,44,45,47,48,49,50,51,52,53,54,55,56,57,58,59,60,61,62,63,65,66,68,70,71,73,75,78,79,80,82,83,84,86,32,33,34,35,36,37,38,39,40,41,45,46,47,48,49,50,51,52,53,54,55,56,57,58,59,60,61,62,63,64,65,66,67,68,69,70,72,73,74,75,76,77,80,81,84,86,87,88,90,91,33,34,35,36,37,38,39,40,41,42,43,44,45,46,47,48,50,51,52,53,54,55,56,57,58,59,60,61,62,63,64,65,67,68,69,70,71,72,73,74,75,76,77,78,79,80,81,82,83,85,86,87,89,90,34,35,36,37,38,39,40,41,42,43,44,45,46,47,48,49,50,52,53,54,55,56,57,58,59,60,62,63,64,65,66,67,68,69,70,71,73,74,75,78,79,80,82,83,85,86,90,35,36,37,38,39,40,41,42,43,44,45,46,47,48,49,50,51,52,54,55,56,57,58,59,60,61,62,63,64,65,66,67,68,69,70,71,72,73,74,75,77,80,81,84,86,90,36,37,38,39,40,41,42,43,44,45,46,47,48,49,50,51,52,53,54,55,56,57,58,59,60,61,62,63,64,65,66,67,68,69,70,71,72,73,74,75,76,77,78,79,80,81,82,83,84,85,86,87,88,90,91,38,39,40,41,42,43,44,45,46,47,48,49,50,51,52,53,54,55,56,57,58,59,60,61,62,63,64,65,66,67,68,69,70,71,72,75,76,77,78,79,80,84,87,88,38,39,40,41,42,43,44,45,46,47,48,49,50,51,52,53,54,55,56,57,58,59,60,61,62,63,64,65,66,67,68,69,70,71,72,75,76,77,78,79,80,84,87,88,39,40,41,42,43,44,45,46,47,48,49,50,51,53,54,55,57,58,59,60,61,62,63,64,65,66,67,68,69,70,72,73,74,75,76,77,78,79,80,81,82,84,86,87,88,90,91,40,41,42,43,44,45,46,47,48,49,50,51,52,53,54,55,56,57,58,59,60,61,62,63,64,65,66,67,69,70,71,72,73,74,75,76,77,78,80,81,84,86,41,42,43,44,46,47,48,49,50,51,52,53,54,55,56,58,59,60,61,62,63,64,65,66,67,68,69,70,71,72,73,74,75,76,77,78,79,80,81,82,84,86,87,90,42,43,44,45,46,47,48,49,50,51,52,53,54,55,56,59,60,61,62,63,64,65,66,67,68,69,70,71,72,73,74,75,76,78,79,80,81,82,83,84,85,86,89,90,43,45,46,47,48,49,50,51,52,53,54,55,56,57,58,59,60,61,62,63,64,65,66,67,68,69,70,71,72,73,74,75,76,77,80,81,84,86,87,88,90,91,44,45,46,47,48,49,50,51,52,53,54,55,56,57,58,59,60,61,62,63,64,65,66,67,68,69,70,72,73,74,75,76,77,78,79,80,81,82,84,86,87,88,90,91,45,46,47,48,49,50,51,52,53,54,55,56,57,58,59,60,61,62,63,64,65,66,67,68,69,70,71,72,73,74,75,76,77,80,81,84,86,87,88,90,91,46,47,48,49,50,51,52,53,54,55,56,58,59,60,61,62,63,64,65,66,67,68,69,70,71,72,73,74,75,76,77,78,79,80,81,82,84,86,87,90,47,48,49,50,51,52,53,54,55,56,57,58,59,60,61,62,63,65,66,68,70,71,73,75,78,79,80,82,83,84,86,48,50,51,52,53,54,55,56,57,58,59,60,61,63,64,65,67,68,70,71,73,75,77,78,79,80,82,83,85,86,49,50,51,52,53,54,55,56,57,58,59,60,61,63,65,66,67,68,70,71,73,75,77,78,79,80,82,83,84,86,50,51,52,53,54,55,56,57,58,59,60,61,62,63,64,65,67,68,69,70,71,72,73,74,75,76,77,78,79,80,81,82,83,85,86,87,89,90,51,52,53,54,55,56,57,58,59,60,61,62,63,64,65,66,67,68,69,70,71,72,73,74,75,76,77,78,79,80,81,82,83,84,85,86,87,88,89,91,52,53,54,55,56,57,58,59,60,61,62,63,64,65,66,67,68,69,70,71,73,74,75,77,78,79,80,82,83,84,85,86,90,53,54,55,57,58,59,60,61,62,63,64,65,66,67,68,69,70,72,73,74,75,76,77,78,79,80,81,82,84,86,87,88,90,91,54,55,56,57,58,59,60,61,62,63,64,65,66,67,68,69,70,71,72,73,74,75,77,80,81,84,86,90,55,56,57,58,59,60,61,62,63,64,65,66,68,69,70,71,72,73,74,75,76,78,79,80,81,82,83,84,85,86,89,90,56,57,58,59,60,61,62,63,65,66,67,68,69,70,71,72,73,74,75,76,77,78,79,80,81,82,83,84,86,87,88,90,91,57,58,59,60,61,62,63,64,65,66,67,68,69,70,72,73,74,75,76,77,78,79,80,81,82,84,86,87,88,90,91,58,59,60,61,62,63,64,65,66,67,68,69,70,71,72,73,74,75,76,77,78,79,80,81,82,83,84,85,86,87,89,90,59,60,61,62,63,64,65,66,67,68,69,70,71,72,73,74,75,76,78,79,80,81,82,83,84,85,86,89,90,60,61,62,63,64,65,66,67,68,69,70,71,72,73,74,75,76,77,78,79,80,82,83,84,85,86,87,88,90,91,61,63,64,65,66,67,68,70,71,73,75,77,78,79,80,82,83,84,85,86,62,63,64,65,66,67,68,69,70,71,72,73,74,75,76,78,79,80,81,82,83,84,85,86,89,90,63,64,65,66,67,68,70,71,73,75,77,78,79,80,82,83,84,85,86,64,65,66,67,69,70,71,72,73,74,75,76,77,78,79,80,81,82,83,84,85,86,87,88,89,91,65,66,67,68,69,70,71,72,73,74,75,76,77,78,79,80,81,82,83,84,86,87,88,90,91,66,67,68,69,71,72,73,74,75,76,77,80,81,84,86,87,88,90,91,67,68,69,70,71,72,73,74,75,76,77,78,79,80,81,82,83,85,86,87,89,90,68,69,70,71,72,73,74,75,76,78,79,80,81,82,83,84,85,86,89,90,69,70,71,72,73,74,75,76,77,78,79,80,81,82,83,84,85,86,87,88,89,91,70,71,73,75,77,78,79,80,82,83,84,85,86,71,72,73,74,75,76,77,80,81,84,86,87,88,90,91,72,73,74,75,76,77,78,79,80,81,82,84,86,87,88,90,91,73,74,75,76,77,78,79,80,82,83,84,85,86,87,88,90,91,75,76,77,78,79,80,84,86,87,88,91,75,76,77,78,79,80,82,83,84,85,86,87,88,91,76,77,78,79,81,82,83,84,85,87,88,89,90,77,78,79,80,81,82,83,84,85,86,89,90,78,79,80,81,82,83,84,85,86,89,90,80,81,84,86,87,88,90,91,80,81,84,86,87,88,90,91,81,82,83,84,85,86,87,88,89,90,82,83,84,85,86,87,88,90,91,84,86,87,88,90,91,84,86,87,88,90,91,85,86,87,89,90,86,87,88,90,91,87,88,89,90,89,90,89,90,90,91,91];

USEFUL_RES = [{},
	{1,2,3,4,5,6},
	{5,6},
	{1,3,4,5,6},
	{1,3,4,6},
	{1,2,3,4,5,6},
	{1,2,3,4,5,6},
	{5,6},
	{1,3,4,6},
	{1,3,4,5,6},
	{2,5,6},
	{1,2,3,4,5,6},
	{1,2,3,4,6},
	{2,5,6},
	{1,3,4,5,6},
	{1,2,3,4,6},
	{1,2,3,4,6},
	{1,2,3,4,5,6},
	{1,3,4,5,6},
	{1,2,3,4,6},
	{1,3,4,5,6},
	{1,3,4,5,6},
	{1,3,4,5,6},
	{1,3,4,5,6},
	{1,2,3,4,5,6},
	{1,2,3,4,5,6},
	{1,2,3,4,6},
	{1,3,4,5,6},
	{2,5,6},
	{1,2,3,4,5,6},
	{1,2,3,4,5,6},
	{1,2,3,4,5,6},
	{1,2,3,4,5,6},
	{2,5,6},
	{1,3,4,6},
	{1,2,3,4,5,6},
	{1,2,3,4,6},
	{1,2,3,4,5,6},
	{5,6},
	{1,2,3,4,5,6},
	{1,3,4,6},
	{1,3,4,5,6},
	{1,2,3,4,6},
	{1,3,4,6},
	{1,2,3,4,5,6},
	{1,2,3,4,5,6},
	{1,3,4,6},
	{2,5,6},
	{1,3,4,5,6},
	{1,3,4,5,6},
	{1,2,3,4,6},
	{1,3,4,5,6},
	{1,3,4,6},
	{5,6},
	{1,3,4,6},
	{1,2,3,4,6},
	{1,2,3,4,5,6},
	{1,2,3,4,6},
	{2,6},
	{5,6},
	{1,3,4,5,6},
	{1,2,3,4,5,6},
	{1,3,4,5,6},
	{1,2,3,4,5,6},
	{1,3,4,6},
	{1,2,3,4,5,6},
	{1,3,4,6},
	{1,3,4,5,6},
	{1,2,3,4,6},
	{1,2,3,4,6},
	{1,3,4,5,6},
	{1,2,3,4,6},
	{5,6},
	{1,2,3,4,6},
	{1,3,4,5,6},
	{1,3,4,5,6},
	{1,2,3,4,5,6},
	{1,3,4,5,6},
	{1,2,3,4,6},
	{1,2,3,4,6},
	{1,2,3,4,5,6},
	{1,3,4,6},
	{1,2,3,4,5,6},
	{1,2,3,4,5,6},
	{1,3,4,6},
	{1,2,3,4,6},
	{1,3,4,5,6},
	{1,3,4,5,6},
	{1,3,4,5,6},
	{1,2,3,4,5,6},
	{1,3,4,6},
	{}];

POTENTIAL_ACT = [{2,4,5,6,7,9,10,12,13,15,16,17,18,19,20,21,22,23,24,25,26,27,28,30,31,32,33,35,36,37,38,40,41,42,43,44,45,46,47,49,50,51,52,53,55,56,57,58,61,62,63,64,65,66,67,68,69,70,71,72,74,75,76,77,78,79,80,81,82,83,84,85,86,87,88,89,90,91},
	{2,6,7,11,12,13,14,16,17,18,20,25,26,27,29,30,31,32,33,34,36,37,38,40,43,45,46,48,51,56,57,58,59,62,64,66,69,70,72,74,77,79,80,81,83,84,86,90},
	{2,4,5,6,7,9,10,12,13,15,16,17,18,19,20,21,22,23,24,25,26,27,28,30,31,32,33,35,36,37,38,40,41,42,43,44,45,46,47,49,50,51,52,53,55,56,57,58,61,62,63,64,65,66,67,68,69,70,71,72,74,75,76,77,78,79,80,81,82,83,84,85,86,87,88,89,90,91},
	{2,4,5,6,7,9,10,12,13,15,16,17,18,19,20,21,22,23,24,25,26,27,28,30,31,32,33,35,36,37,38,40,41,42,43,44,45,46,47,49,50,51,52,53,55,56,57,58,61,62,63,64,65,66,67,68,69,70,71,72,74,75,76,77,78,79,80,81,82,83,84,85,86,87,88,89,90,91},
	{2,3,4,6,7,8,10,11,12,14,15,18,19,21,22,23,24,25,26,28,29,30,31,32,33,34,36,38,39,40,42,45,46,48,49,50,52,54,57,60,61,62,63,64,66,68,71,73,75,76,77,78,81,83,84,87,88,89,90},
	{2,3,4,5,6,7,8,9,10,11,12,13,14,15,16,17,18,19,20,21,22,23,24,25,26,27,28,29,30,31,32,33,34,35,36,37,38,39,40,41,42,43,44,45,46,47,48,49,50,51,52,53,54,55,56,57,58,59,60,61,62,63,64,65,66,67,68,69,70,71,72,73,74,75,76,77,78,79,80,81,82,83,84,85,86,87,88,89,90,91}];
